SCIP version 0.82 [precision: 8 byte] [memory: block] [mode: optimized] [LP solver: SOPLEX 1.3.0]
Copyright (c) 2002-2006 Konrad-Zuse-Zentrum fuer Informationstechnik Berlin (ZIB)

reading parameter file <scip.set>

read problem </ufs/psxjm3/instances/random_3.ctt.etp.zpl>
============

****************************************************
* Zuse Institute Mathematical Programming Language *
* Release 2.04  Copyright (C)2005 by Thorsten Koch *
****************************************************

original problem has 5292 variables (5260 bin, 32 int, 0 impl, 0 cont) and 4147 constraints

solve problem
=============

LP Solver <SOPLEX 1.3.0>: dual feasibility tolerance cannot be set -- tolerance of SCIP and LP solver may differ
LP Solver <SOPLEX 1.3.0>: barrier convergence tolerance cannot be set -- tolerance of SCIP and LP solver may differ
LP Solver <SOPLEX 1.3.0>: fastmip setting not available -- SCIP parameter has no effect
LP Solver <SOPLEX 1.3.0>: scaling not available -- SCIP parameter has no effect
LP Solver <SOPLEX 1.3.0>: presolving not available -- SCIP parameter has no effect
transformed problem has 5292 variables (5260 bin, 32 int, 0 impl, 0 cont) and 4147 constraints
   4147 constraints of type <linear>

presolving:
(round 1) 689 del vars, 151 del conss, 689 chg bounds, 0 chg sides, 0 chg coeffs, 0 upgd conss, 0 impls, 1991 clqs
(round 2) 689 del vars, 285 del conss, 689 chg bounds, 0 chg sides, 0 chg coeffs, 0 upgd conss, 0 impls, 1991 clqs
(round 3) 689 del vars, 1224 del conss, 689 chg bounds, 938 chg sides, 0 chg coeffs, 0 upgd conss, 0 impls, 1991 clqs
(round 4) 690 del vars, 1224 del conss, 689 chg bounds, 938 chg sides, 0 chg coeffs, 2717 upgd conss, 0 impls, 1991 clqs
(round 5) 690 del vars, 1249 del conss, 689 chg bounds, 938 chg sides, 29 chg coeffs, 2717 upgd conss, 0 impls, 1991 clqs
   (2.2s) probing: 100/4571 (2.2%) - 0 fixings, 0 aggregations, 6 implications, 0 bound changes
   (2.8s) probing: 200/4571 (4.4%) - 0 fixings, 0 aggregations, 12 implications, 0 bound changes
   (3.3s) probing: 300/4571 (6.6%) - 0 fixings, 0 aggregations, 18 implications, 0 bound changes
presolving (6 rounds):
 690 deleted vars, 1249 deleted constraints, 689 tightened bounds, 0 added holes, 938 changed sides, 29 changed coefficients
 36 implications, 1991 cliques
presolved problem has 4602 variables (4571 bin, 31 int, 0 impl, 0 cont) and 2898 constraints
   1248 constraints of type <knapsack>
   1298 constraints of type <setppc>
    206 constraints of type <linear>
    146 constraints of type <logicor>
objective value is always integral
Presolving Time: 3.36

 time | node  | left  |LP iter| mem |mdpt |frac |vars |cons |ccons|cols |rows |cuts |confs|strbr|  dualbound   | primalbound  |  gap   
  7.7s|     1 |     0 |  3353 |  38M|   0 | 210 |4602 |2898 |2898 |4602 |2898 |   0 |   0 |   0 | 6.391000e+03 |      --      |    Inf 
  8.8s|     1 |     0 |  3854 |  39M|   0 | 229 |4602 |2898 |2898 |4602 |2904 |   6 |   0 |   0 | 6.391000e+03 |      --      |    Inf 
 10.1s|     1 |     0 |  4416 |  39M|   0 | 245 |4602 |2898 |2898 |4602 |2908 |  10 |   0 |   0 | 6.391000e+03 |      --      |    Inf 
 11.2s|     1 |     0 |  4846 |  39M|   0 | 192 |4602 |2898 |2898 |4602 |2914 |  16 |   0 |   0 | 6.391000e+03 |      --      |    Inf 
 12.4s|     1 |     0 |  5347 |  39M|   0 | 238 |4602 |2898 |2898 |4602 |2915 |  17 |   0 |   0 | 6.391000e+03 |      --      |    Inf 
 13.1s|     1 |     0 |  5591 |  39M|   0 | 218 |4602 |2898 |2898 |4602 |2921 |  23 |   0 |   0 | 6.391000e+03 |      --      |    Inf 
 13.9s|     1 |     0 |  5849 |  39M|   0 | 231 |4602 |2898 |2898 |4602 |2924 |  26 |   0 |   0 | 6.391000e+03 |      --      |    Inf 
 96.9s|     1 |     2 | 15880 |  39M|   0 | 231 |4602 |2898 |2898 |4602 |2924 |  26 |   0 |  43 | 6.391000e+03 |      --      |    Inf 
* 376s|    61 |    58 | 37194 |  39M|  60 |   - |4602 |2898 |2289 |4602 |2918 |  26 |   0 | 204 | 6.391000e+03 | 6.397000e+03 |   0.09%
  446s|   100 |    97 | 67073 |  40M|  60 | 143 |4602 |2898 |2749 |4602 |2918 |  26 |   0 | 218 | 6.391000e+03 | 6.397000e+03 |   0.09%
  575s|   200 |   197 |124587 |  40M|  60 | 105 |4602 |2898 |2523 |4602 |2918 |  26 |   0 | 247 | 6.391000e+03 | 6.397000e+03 |   0.09%
o 649s|   278 |   267 |150763 |  41M|  78 |   0 |4602 |2898 |2408 |4602 |2918 |  26 |   0 | 277 | 6.391000e+03 | 6.395000e+03 |   0.06%
  657s|   300 |   266 |156100 |  41M|  78 |  41 |4602 |2898 |2315 |4602 |2918 |  26 |   0 | 277 | 6.391000e+03 | 6.395000e+03 |   0.06%
  821s|   400 |   364 |222893 |  41M|  78 | 199 |4602 |2898 |2714 |4602 |2918 |  26 |   0 | 320 | 6.391000e+03 | 6.395000e+03 |   0.06%
f 847s|   415 |   257 |231882 |  41M|  78 |   - |4602 |2898 |2409 |4602 |2918 |  26 |   0 | 335 | 6.391000e+03 | 6.393000e+03 |   0.03%
 time | node  | left  |LP iter| mem |mdpt |frac |vars |cons |ccons|cols |rows |cuts |confs|strbr|  dualbound   | primalbound  |  gap   
  912s|   500 |   304 |258148 |  41M|  78 | 115 |4602 |2898 |2050 |4602 |2918 |  26 |   0 | 363 | 6.391000e+03 | 6.393000e+03 |   0.03%
  972s|   600 |   378 |283232 |  41M|  78 |  78 |4602 |2898 |2383 |4602 |2918 |  26 |   0 | 390 | 6.391000e+03 | 6.393000e+03 |   0.03%
 1025s|   700 |   446 |304589 |  41M|  79 |   - |4602 |2898 |1825 |4602 |2918 |  26 |   0 | 431 | 6.391000e+03 | 6.393000e+03 |   0.03%
 1069s|   800 |   510 |325985 |  42M|  83 |  70 |4602 |2898 |2264 |4602 |2918 |  26 |   0 | 458 | 6.391000e+03 | 6.393000e+03 |   0.03%
 1109s|   900 |   564 |343801 |  42M|  91 |   - |4602 |2898 |2378 |4602 |2918 |  26 |   0 | 484 | 6.391000e+03 | 6.393000e+03 |   0.03%
 1169s|  1000 |   622 |369545 |  42M|  91 |  17 |4602 |2898 |2310 |4602 |2918 |  26 |   0 | 511 | 6.391000e+03 | 6.393000e+03 |   0.03%
 1224s|  1100 |   682 |392649 |  42M|  91 |   - |4602 |2898 |1777 |4602 |2918 |  26 |   0 | 537 | 6.391000e+03 | 6.393000e+03 |   0.03%
R1229s|  1113 |     0 |395938 |  40M|  91 |   - |4602 |2898 |2378 |4602 |2918 |  26 |   0 | 537 | 6.391000e+03 | 6.391000e+03 |   0.00%

SCIP Status        : problem is solved [optimal solution found]
Solving Time (sec) : 1228.56
Solving Nodes      : 1113
Primal Bound       : +6.39100000000000e+03 (5 solutions)
Dual Bound         : +6.39100000000000e+03
Gap                : 0.00 %

primal solution:
================

objective value:                                 6391
Taught#1#3#22                                       1 	(obj:0)
Taught#1#4#6                                        1 	(obj:105)
Taught#1#5#13                                       1 	(obj:154)
Taught#1#6#5                                        1 	(obj:59)
Taught#2#1#22                                       1 	(obj:0)
Taught#2#3#20                                       1 	(obj:124)
Taught#2#4#30                                       1 	(obj:93)
Taught#2#5#16                                       1 	(obj:94)
Taught#2#6#13                                       1 	(obj:84)
Taught#3#3#17                                       1 	(obj:43)
Taught#3#5#4                                        1 	(obj:104)
Taught#3#6#19                                       1 	(obj:1)
Taught#4#3#12                                       1 	(obj:46)
Taught#4#4#17                                       1 	(obj:43)
Taught#4#5#19                                       1 	(obj:71)
Taught#4#6#32                                       1 	(obj:44)
Taught#5#3#31                                       1 	(obj:258)
Taught#5#4#9                                        1 	(obj:0)
Taught#5#5#24                                       1 	(obj:39)
Taught#5#6#2                                        1 	(obj:133)
Taught#6#2#9                                        1 	(obj:0)
Taught#6#5#24                                       1 	(obj:39)
Taught#6#6#21                                       1 	(obj:140)
Taught#7#3#3                                        1 	(obj:0)
Taught#7#4#7                                        1 	(obj:12)
Taught#7#5#13                                       1 	(obj:154)
Taught#7#6#4                                        1 	(obj:34)
Taught#8#3#7                                        1 	(obj:12)
Taught#8#4#17                                       1 	(obj:43)
Taught#8#5#6                                        1 	(obj:60)
Taught#8#6#20                                       1 	(obj:9)
Taught#9#3#1                                        1 	(obj:42)
Taught#9#4#23                                       1 	(obj:0)
Taught#9#5#20                                       1 	(obj:79)
Taught#9#6#16                                       1 	(obj:24)
Taught#10#5#16                                      1 	(obj:94)
Taught#10#6#29                                      1 	(obj:51)
Taught#11#1#3                                       1 	(obj:0)
Taught#11#3#18                                      1 	(obj:43)
Taught#11#4#8                                       1 	(obj:12)
Taught#11#5#30                                      1 	(obj:48)
Taught#11#6#2                                       1 	(obj:133)
Taught#12#1#23                                      1 	(obj:0)
Taught#12#2#9                                       1 	(obj:0)
Taught#12#3#14                                      1 	(obj:30)
Taught#12#5#19                                      1 	(obj:71)
Taught#12#6#11                                      1 	(obj:38)
Taught#13#4#31                                      1 	(obj:258)
Taught#13#5#29                                      1 	(obj:121)
Taught#13#6#11                                      1 	(obj:38)
Taught#14#2#15                                      1 	(obj:0)
Taught#14#3#16                                      1 	(obj:139)
Taught#14#5#25                                      1 	(obj:24)
Taught#14#6#21                                      1 	(obj:140)
Taught#15#3#26                                      1 	(obj:19)
Taught#15#4#1                                       1 	(obj:42)
Taught#15#5#29                                      1 	(obj:121)
Taught#15#6#28                                      1 	(obj:132)
Taught#16#3#18                                      1 	(obj:43)
Taught#16#5#27                                      1 	(obj:121)
Taught#16#6#2                                       1 	(obj:133)
Taught#17#3#18                                      1 	(obj:43)
Taught#17#4#25                                      1 	(obj:69)
Taught#17#5#10                                      1 	(obj:187)
Taught#17#6#27                                      1 	(obj:51)
Taught#18#3#22                                      1 	(obj:0)
Taught#18#5#25                                      1 	(obj:24)
Taught#18#6#28                                      1 	(obj:132)
Taught#19#1#15                                      1 	(obj:0)
Taught#19#3#1                                       1 	(obj:42)
Taught#19#4#12                                      1 	(obj:46)
Taught#19#5#30                                      1 	(obj:48)
Taught#19#6#28                                      1 	(obj:132)
Taught#20#3#26                                      1 	(obj:19)
Taught#20#4#12                                      1 	(obj:46)
Taught#20#5#30                                      1 	(obj:48)
Taught#20#6#21                                      1 	(obj:140)
Taught#21#1#15                                      1 	(obj:0)
Taught#21#3#8                                       1 	(obj:12)
Taught#21#4#17                                      1 	(obj:43)
Taught#21#5#5                                       1 	(obj:129)
Taught#21#6#29                                      1 	(obj:51)
Taught#22#1#23                                      1 	(obj:0)
Taught#22#2#9                                       1 	(obj:0)
Taught#22#3#15                                      1 	(obj:0)
Taught#22#4#1                                       1 	(obj:42)
Taught#22#5#6                                       1 	(obj:60)
Taught#22#6#11                                      1 	(obj:38)
Taught#23#3#14                                      1 	(obj:30)
Taught#23#4#7                                       1 	(obj:12)
Taught#23#5#12                                      1 	(obj:1)
Taught#23#6#28                                      1 	(obj:132)
Taught#24#3#6                                       1 	(obj:105)
Taught#24#4#18                                      1 	(obj:43)
Taught#24#5#4                                       1 	(obj:104)
Taught#24#6#10                                      1 	(obj:117)
Taught#25#3#14                                      1 	(obj:30)
Taught#25#4#4                                       1 	(obj:149)
Taught#25#5#31                                      1 	(obj:213)
Taught#25#6#5                                       1 	(obj:59)
CourseSchedule#1#2                                  1 	(obj:0)
CourseSchedule#1#3                                  1 	(obj:0)
CourseSchedule#1#4                                  1 	(obj:0)
CourseSchedule#1#5                                  1 	(obj:0)
CourseSchedule#2#1                                  1 	(obj:0)
CourseSchedule#2#3                                  1 	(obj:0)
CourseSchedule#2#4                                  1 	(obj:0)
CourseSchedule#3#2                                  1 	(obj:0)
CourseSchedule#3#3                                  1 	(obj:0)
CourseSchedule#4#1                                  1 	(obj:0)
CourseSchedule#4#2                                  1 	(obj:0)
CourseSchedule#4#5                                  1 	(obj:0)
CourseSchedule#5#1                                  1 	(obj:0)
CourseSchedule#5#5                                  1 	(obj:0)
CourseSchedule#6#1                                  1 	(obj:0)
CourseSchedule#6#2                                  1 	(obj:0)
CourseSchedule#6#5                                  1 	(obj:0)
CourseSchedule#7#2                                  1 	(obj:0)
CourseSchedule#7#5                                  1 	(obj:0)
CourseSchedule#8#3                                  1 	(obj:0)
CourseSchedule#8#5                                  1 	(obj:0)
CourseSchedule#9#1                                  1 	(obj:0)
CourseSchedule#9#2                                  1 	(obj:0)
CourseSchedule#9#3                                  1 	(obj:0)
CourseSchedule#9#5                                  1 	(obj:0)
CourseSchedule#10#4                                 1 	(obj:0)
CourseSchedule#10#5                                 1 	(obj:0)
CourseSchedule#11#3                                 1 	(obj:0)
CourseSchedule#11#5                                 1 	(obj:0)
CourseSchedule#12#1                                 1 	(obj:0)
CourseSchedule#12#4                                 1 	(obj:0)
CourseSchedule#12#5                                 1 	(obj:0)
CourseSchedule#13#1                                 1 	(obj:0)
CourseSchedule#13#2                                 1 	(obj:0)
CourseSchedule#14#3                                 1 	(obj:0)
CourseSchedule#14#5                                 1 	(obj:0)
CourseSchedule#15#3                                 1 	(obj:0)
CourseSchedule#15#4                                 1 	(obj:0)
CourseSchedule#15#5                                 1 	(obj:0)
CourseSchedule#16#1                                 1 	(obj:0)
CourseSchedule#16#2                                 1 	(obj:0)
CourseSchedule#16#3                                 1 	(obj:0)
CourseSchedule#17#1                                 1 	(obj:0)
CourseSchedule#17#2                                 1 	(obj:0)
CourseSchedule#17#5                                 1 	(obj:0)
CourseSchedule#18#3                                 1 	(obj:0)
CourseSchedule#18#4                                 1 	(obj:0)
CourseSchedule#18#5                                 1 	(obj:0)
CourseSchedule#19#1                                 1 	(obj:0)
CourseSchedule#19#3                                 1 	(obj:0)
CourseSchedule#20#1                                 1 	(obj:0)
CourseSchedule#20#2                                 1 	(obj:0)
CourseSchedule#21#2                                 1 	(obj:0)
CourseSchedule#21#3                                 1 	(obj:0)
CourseSchedule#21#4                                 1 	(obj:0)
CourseSchedule#22#1                                 1 	(obj:0)
CourseSchedule#22#4                                 1 	(obj:0)
CourseSchedule#23#2                                 1 	(obj:0)
CourseSchedule#23#3                                 1 	(obj:0)
CourseSchedule#23#5                                 1 	(obj:0)
CourseSchedule#24#1                                 1 	(obj:0)
CourseSchedule#24#2                                 1 	(obj:0)
CourseSchedule#25#3                                 1 	(obj:0)
CourseSchedule#25#4                                 1 	(obj:0)
CourseSchedule#26#3                                 1 	(obj:0)
CourseSchedule#26#4                                 1 	(obj:0)
CourseSchedule#27#4                                 1 	(obj:0)
CourseSchedule#28#3                                 1 	(obj:0)
CourseSchedule#28#4                                 1 	(obj:0)
CourseSchedule#28#5                                 1 	(obj:0)
CourseSchedule#29#2                                 1 	(obj:0)
CourseSchedule#29#3                                 1 	(obj:0)
CourseSchedule#29#5                                 1 	(obj:0)
CourseSchedule#30#1                                 1 	(obj:0)
CourseSchedule#30#3                                 1 	(obj:0)
CourseSchedule#30#4                                 1 	(obj:0)
CourseSchedule#31#1                                 1 	(obj:0)
CourseSchedule#31#3                                 1 	(obj:0)
CourseSchedule#31#5                                 1 	(obj:0)
CourseSchedule#32#1                                 1 	(obj:0)

Statistics
==========

SCIP Status        : problem is solved [optimal solution found]
Solving Time       :    1228.56
Original Problem   :
  Problem name     : random_3.ctt.etp.zpl
  Variables        : 5292 (5260 binary, 32 integer, 0 implicit integer, 0 continuous)
  Constraints      : 4147 initial, 4147 maximal
Presolved Problem  :
  Problem name     : t_random_3.ctt.etp.zpl
  Variables        : 4602 (4571 binary, 31 integer, 0 implicit integer, 0 continuous)
  Constraints      : 2898 initial, 2898 maximal
Presolvers         :       Time  FixedVars   AggrVars   ChgTypes  ChgBounds   AddHoles    DelCons   ChgSides   ChgCoefs
  trivial          :       0.00          0          0          0          0          0          0          0          0
  inttobinary      :       0.00          0          0          0          0          0          0          0          0
  dualfix          :       0.00          1          0          0          0          0          0          0          0
  implics          :       0.00          0          0          0          0          0          0          0          0
  probing          :       1.85          0          0          0          0          0          0          0          0
  knapsack         :       0.72          0          0          0          0          0          0          0         29
  setppc           :       0.03          0          0          0          0          0         25          0          0
  linear           :       0.68        689          0          0        689          0       1224        938          0
  logicor          :       0.00          0          0          0          0          0          0          0          0
  root node        :          -       1809          -          -       1840          -          -          -          -
Constraints        :     Number  #Separate #Propagate    #EnfoLP    #EnfoPS    Cutoffs    DomReds       Cuts      Conss   Children
  integral         :          0          0          0        978          0          1          2          0          0       1948
  knapsack         :       1248          6       4653          1          0          1        359          0          0          0
  setppc           :       1298          6       4652          1          0          0      24650          0          0          0
  linear           :        206          6       2943          1          0          1       5867          0          0          0
  logicor          :        146          6       1575          1          0          1        518          0          0          0
Constraint Timings :  TotalTime   Separate  Propagate     EnfoLP     EnfoPS
  integral         :     537.87       0.00       0.00     537.87       0.00
  knapsack         :       0.86       0.13       0.73       0.00       0.00
  setppc           :       0.59       0.01       0.58       0.00       0.00
  linear           :       2.11       0.06       2.05       0.00       0.00
  logicor          :       0.05       0.00       0.05       0.00       0.00
Propagators        :       Time      Calls    Cutoffs    DomReds
  rootredcost      :       0.01          3          0       1840
  pseudoobj        :       0.02       3979          0          0
Conflict Analysis  :       Time      Calls    Success  Conflicts   Literals    Reconvs ReconvLits   LP Iters
  propagation      :       0.00          0          0          0        0.0          0        0.0          -
  infeasible LP    :       0.00          0          0          0        0.0          0        0.0          0
  bound exceed. LP :       0.00          0          0          0        0.0          0        0.0          0
  strong branching :       0.00          0          0          0        0.0          0        0.0          0
  pseudo solution  :       0.00          0          0          0        0.0          0        0.0          -
  applied globally :          -          -          -          0        0.0          -          -          -
  applied locally  :          -          -          -          0        0.0          -          -          -
Separators         :       Time      Calls    Cutoffs    DomReds       Cuts      Conss
  cut pool         :       0.00          5          -          -          1          -    (maximal pool size: 28)
  redcost          :       0.62        855          0      11933          0          0
  impliedbounds    :       0.00          6          0          0          0          0
  intobj           :       0.00          0          0          0          0          0
  gomory           :       0.12          6          0          0          0          0
  strongcg         :       0.16          6          0          0          0          0
  cmir             :       0.74          6          0          0          0          0
  clique           :       0.06          6          0          0         25          0
Pricers            :       Time      Calls       Vars
  problem variables:       0.00          0          0
Branching Rules    :       Time      Calls    Cutoffs    DomReds       Cuts      Conss   Children
  relpscost        :     537.87        977          1          2          0          0       1948
  pscost           :       0.00          0          0          0          0          0          0
  inference        :       0.00          0          0          0          0          0          0
  mostinf          :       0.00          0          0          0          0          0          0
  leastinf         :       0.00          0          0          0          0          0          0
  fullstrong       :       0.00          0          0          0          0          0          0
  allfullstrong    :       0.00          0          0          0          0          0          0
Primal Heuristics  :       Time      Calls      Found
  LP solutions     :       0.00          -          1
  pseudo solutions :       0.00          -          0
  guideddiving     :       2.46          1          0
  feaspump         :      21.97          1          0
  objpscostdiving  :      15.69          1          1
  rootsoldiving    :       5.10          1          1
  coefdiving       :      23.37          2          0
  pscostdiving     :      45.11          2          0
  fracdiving       :      25.32          2          1
  linesearchdiving :       5.38          2          0
  simplerounding   :       0.97        994          0
  rounding         :       1.95        994          1
  shifting         :       0.97        102          0
  fixandinfer      :       0.00          0          0
  intdiving        :       0.00          0          0
  octane           :       0.00          0          0
  rins             :       0.00          0          0
  localbranching   :       0.00          0          0
  crossover        :       5.14          1          0
LP                 :       Time      Calls Iterations  Iter/call   Iter/sec
  primal LP        :       0.01          0          0       0.00       0.00
  dual LP          :     527.92       1116     318447     285.35     603.21
  barrier LP       :       0.00          0          0       0.00          -
  diving/probing LP:     138.35       1627      77491      47.63     560.11
  strong branching :     537.76        537     289217     538.58     537.82
    (at root node) :          -         43      29337     682.26          -
  conflict analysis:       0.00          0          0       0.00          -
B&B Tree           :
  number of runs   :          1
  nodes            :       1113
  nodes (total)    :       1113
  nodes left       :          0
  max depth        :         91
  max depth (total):         91
  backtracks       :         32 (2.9%)
  delayed cutoffs  :          0
  repropagations   :          3 (0 domain reductions, 0 cutoffs)
  avg switch length:       2.49
  switching time   :       0.48
Solution           :
  Solutions found  :          5 (4 improvements)
  Primal Bound     : +6.39100000000000e+03   (in run 1, after 1113 nodes, 1228.52 seconds, depth 57, found by <rounding>)
  Dual Bound       : +6.39100000000000e+03
  Gap              :       0.00 %
  Root Dual Bound  : +6.39100000000000e+03
